NAME : gaussian_missing_edges_with_de_nei2_nei3_random44.3920.tour
COMMENT : Length = 3920
COMMENT : Found by LKH [Keld Helsgaun] Fri Jul 12 17:07:40 2024
TYPE : TOUR
DIMENSION : 44
TOUR_SECTION
1
4
28
39
14
8
6
21
31
30
9
3
35
16
36
20
42
29
38
19
26
41
25
27
32
15
2
13
40
10
7
11
34
12
37
43
22
17
33
44
5
18
23
24
-1
EOF
